130 129 128 127 126 125 124 69 70 68 67 66 65 72 71 123 122 121 120 118 119 73 74 75 77 76 64 62 63 61 60 59 81 80 79 78 88 89 90 87 86 85 82 57 58 56 55 54 53 83 84 51 52 50 49 48 47 46 45 44 43 42 39 41 40 38 37 36 35 34 33 32 30 31 22 23 12 13 21 24 25 28 29 27 26 567 566 565 563 562 561 560 564 549 548 551 550 559 558 557 556 552 553 554 555 91 92 93 94 97 95 96 98 99 100 101 102 103 104 105 106 117 116 115 114 112 111 110 109 108 107 542 541 543 544 547 546 545 478 477 479 480 476 475 482 481 483 484 485 486 490 529 528 527 526 491 492 493 525 524 494 495 471 472 473 474 570 569 568 20 19 18 17 16 15 14 11 10 9 8 7 6 5 4 3 2 1 0 573 572 571 460 459 458 457 456 455 454 439 436 438 437 435 434 433 432 430 429 428 431 445 444 443 442 446 447 448 449 440 441 450 451 312 313 311 310 309 308 505 307 506 504 503 502 501 500 499 453 452 461 462 463 464 465 466 467 468 469 470 496 497 498 519 518 520 521 523 522 517 516 515 514 513 512 511 510 509 507 508 302 301 303 304 306 305 318 317 319 320 321 316 314 315 374 375 376 377 378 379 380 381 390 389 388 391 392 393 394 395 396 371 372 373 322 323 324 325 326 327 367 365 368 369 370 398 397 399 400 401 402 403 404 405 406 407 408 409 384 383 385 387 386 382 425 424 426 427 423 422 421 420 419 417 418 410 411 412 356 355 354 353 352 413 414 416 415 351 350 347 348 349 357 358 359 360 361 362 363 364 346 345 344 343 342 366 328 329 330 331 332 340 341 339 338 337 336 333 335 334 283 284 285 286 287 280 281 282 279 278 277 276 288 289 290 275 274 273 272 271 267 268 269 270 292 291 293 294 295 296 297 298 299 265 266 264 263 262 261 260 259 258 300 257 256 255 253 254 252 251 250 249 248 241 242 243 244 245 247 246 238 239 240 237 236 235 234 232 233 530 531 489 532 533 488 534 487 535 536 537 539 538 540 176 175 174 173 172 170 171 177 178 187 188 186 229 230 231 228 227 189 225 226 190 191 192 193 219 218 220 221 222 224 223 217 216 215 214 213 212 211 210 209 205 206 207 208 203 204 202 201 200 199 198 197 196 195 194 184 185 183 182 179 181 180 169 168 162 163 167 166 164 165 154 153 147 148 152 149 150 151 141 142 143 144 146 145 158 157 159 156 155 160 161 113 131 132 133 134 135 136 140 139 138 137